NAME /Users/henri/Research/solvers/instances/idol-instances/robust/collection/cbp_Subramanyam_et_al_2020/CapBud_N15_5/models/uncertain_technology_matrix/
ROWS
 N  OBJ
 L  capacity
 L  c_1385
 L  c_1386
 L  c_1387
 L  c_1388
 L  c_1389
 L  c_1390
 L  c_1391
 L  c_1392
 L  c_1393
 L  c_1394
 L  c_1395
 L  c_1396
 L  c_1397
 L  c_1398
 L  c_1399
COLUMNS
    MARKER    'MARKER'                 'INTORG'
    x_0        OBJ        3.21265
    x_0        c_1385     1
    x_0        capacity   0.642529
    x_1        OBJ        7.9409
    x_1        c_1386     1
    x_1        capacity   1.58818
    x_2        OBJ        1.28541
    x_2        c_1387     1
    x_2        capacity   0.257082
    x_3        OBJ        5.07946
    x_3        c_1388     1
    x_3        capacity   1.01589
    x_4        OBJ        9.82059
    x_4        c_1389     1
    x_4        capacity   1.96412
    x_5        OBJ        7.25625
    x_5        c_1390     1
    x_5        capacity   1.45125
    x_6        OBJ        1.27095
    x_6        c_1391     1
    x_6        capacity   0.254191
    x_7        OBJ        6.58217
    x_7        c_1392     1
    x_7        capacity   1.31643
    x_8        OBJ        6.71397
    x_8        c_1393     1
    x_8        capacity   1.34279
    x_9        OBJ        8.25781
    x_9        c_1394     1
    x_9        capacity   1.65156
    x_10       OBJ        2.96732
    x_10       c_1395     1
    x_10       capacity   0.593464
    x_11       OBJ        1.4682
    x_11       c_1396     1
    x_11       capacity   0.293641
    x_12       OBJ        8.46715
    x_12       c_1397     1
    x_12       capacity   1.69343
    x_13       OBJ        3.64857
    x_13       c_1398     1
    x_13       capacity   0.729715
    x_14       OBJ        4.39275
    x_14       c_1399     1
    x_14       capacity   0.87855
    y_0        OBJ        2.57012
    y_0        c_1385     1
    y_0        capacity   0.642529
    y_1        OBJ        6.35272
    y_1        c_1386     1
    y_1        capacity   1.58818
    y_2        OBJ        1.02833
    y_2        c_1387     1
    y_2        capacity   0.257082
    y_3        OBJ        4.06357
    y_3        c_1388     1
    y_3        capacity   1.01589
    y_4        OBJ        7.85647
    y_4        c_1389     1
    y_4        capacity   1.96412
    y_5        OBJ        5.805
    y_5        c_1390     1
    y_5        capacity   1.45125
    y_6        OBJ        1.01676
    y_6        c_1391     1
    y_6        capacity   0.254191
    y_7        OBJ        5.26574
    y_7        c_1392     1
    y_7        capacity   1.31643
    y_8        OBJ        5.37117
    y_8        c_1393     1
    y_8        capacity   1.34279
    y_9        OBJ        6.60625
    y_9        c_1394     1
    y_9        capacity   1.65156
    y_10       OBJ        2.37385
    y_10       c_1395     1
    y_10       capacity   0.593464
    y_11       OBJ        1.17456
    y_11       c_1396     1
    y_11       capacity   0.293641
    y_12       OBJ        6.77372
    y_12       c_1397     1
    y_12       capacity   1.69343
    y_13       OBJ        2.91886
    y_13       c_1398     1
    y_13       capacity   0.729715
    y_14       OBJ        3.5142
    y_14       c_1399     1
    y_14       capacity   0.87855
    MARKER    'MARKER'                 'INTEND'
RHS
    RHS       capacity   39.1821
    RHS       c_1385     1
    RHS       c_1386     1
    RHS       c_1387     1
    RHS       c_1388     1
    RHS       c_1389     1
    RHS       c_1390     1
    RHS       c_1391     1
    RHS       c_1392     1
    RHS       c_1393     1
    RHS       c_1394     1
    RHS       c_1395     1
    RHS       c_1396     1
    RHS       c_1397     1
    RHS       c_1398     1
    RHS       c_1399     1
BOUNDS
 LI BND       x_0        0
 UI BND       x_0        1
 LI BND       x_1        0
 UI BND       x_1        1
 LI BND       x_2        0
 UI BND       x_2        1
 LI BND       x_3        0
 UI BND       x_3        1
 LI BND       x_4        0
 UI BND       x_4        1
 LI BND       x_5        0
 UI BND       x_5        1
 LI BND       x_6        0
 UI BND       x_6        1
 LI BND       x_7        0
 UI BND       x_7        1
 LI BND       x_8        0
 UI BND       x_8        1
 LI BND       x_9        0
 UI BND       x_9        1
 LI BND       x_10       0
 UI BND       x_10       1
 LI BND       x_11       0
 UI BND       x_11       1
 LI BND       x_12       0
 UI BND       x_12       1
 LI BND       x_13       0
 UI BND       x_13       1
 LI BND       x_14       0
 UI BND       x_14       1
 LI BND       y_0        0
 UI BND       y_0        1
 LI BND       y_1        0
 UI BND       y_1        1
 LI BND       y_2        0
 UI BND       y_2        1
 LI BND       y_3        0
 UI BND       y_3        1
 LI BND       y_4        0
 UI BND       y_4        1
 LI BND       y_5        0
 UI BND       y_5        1
 LI BND       y_6        0
 UI BND       y_6        1
 LI BND       y_7        0
 UI BND       y_7        1
 LI BND       y_8        0
 UI BND       y_8        1
 LI BND       y_9        0
 UI BND       y_9        1
 LI BND       y_10       0
 UI BND       y_10       1
 LI BND       y_11       0
 UI BND       y_11       1
 LI BND       y_12       0
 UI BND       y_12       1
 LI BND       y_13       0
 UI BND       y_13       1
 LI BND       y_14       0
 UI BND       y_14       1
ENDATA
